solution status: optimal solution found
objective value:                                    1
$_191_y                                            21 	(obj:0)
$_191_z                                            20 	(obj:0)
$_106_y                                            23 	(obj:0)
$_106_z                                            15 	(obj:0)
$_268_y                                            24 	(obj:0)
$_268_z                                            18 	(obj:0)
$_107_y                                            22 	(obj:0)
$_107_z                                            22 	(obj:0)
$_273_y                                            22 	(obj:0)
$_273_z                                            15 	(obj:0)
$_227_y                                            23 	(obj:0)
$_227_z                                            20 	(obj:0)
$_19__8_y                                          21 	(obj:0)
$_19__8_z                                          23 	(obj:0)
$_41_y                                             20 	(obj:0)
$_41_z                                             23 	(obj:0)
$_22_y                                             18 	(obj:0)
$_22_z                                             22 	(obj:0)
$_186_y                                            21 	(obj:0)
$_186_z                                            22 	(obj:0)
$_232_y                                            23 	(obj:0)
$_232_z                                            18 	(obj:0)
$_24_y                                             21 	(obj:0)
$_24_z                                             18 	(obj:0)
$_25_y                                             23 	(obj:0)
$_25_z                                             16 	(obj:0)
$_63_y                                             23 	(obj:0)
$_63_z                                             17 	(obj:0)
$_150_y                                            20 	(obj:0)
$_150_z                                            22 	(obj:0)
$_21__8_y                                          24 	(obj:0)
$_21__8_z                                          20 	(obj:0)
$_18__8_y                                          20 	(obj:0)
$_18__8_z                                          18 	(obj:0)
$_23_y                                             22 	(obj:0)
$_23_z                                             20 	(obj:0)
$_62_y                                             22 	(obj:0)
$_62_z                                             17 	(obj:0)
$_40_y                                             19 	(obj:0)
$_40_z                                             22 	(obj:0)
$_20__8_y                                          20 	(obj:0)
$_20__8_z                                          20 	(obj:0)
x50                                                 1 	(obj:1)
